Route #1: 1 20 16 6 5 60 15 36 49 23 25 1
Route #2: 1 33 4 10 38 13 11 19 62 34 1
Route #3: 1 44 50 63 53 21 1
Route #4: 1 35 41 39 28 22 9 18 31 47 1
Route #5: 1 56 52 61 37 14 57 1
Route #6: 1 2 27 42 55 8 32 1
Route #7: 1 51 48 30 12 29 1
Route #8: 1 24 26 58 43 64 3 40 1
Route #9: 1 17 46 45 59 54 7 1
cost: 991
